Route #1: 59 60 82
Route #2: 58 12 5
Route #3: 93 75
Route #4: 32 33 53 73 95 24
Route #5: 7 2 45 43 29 36 72 57
Route #6: 40 67 88 44
Route #7: 50 91 52
Route #8: 83 51 81
Route #9: 35 46 31
Route #10: 63 77 3
Route #11: 18 10 39
Route #12: 92 9 86
Route #13: 20 41 22 15
Route #14: 89 98 99 62 71
Route #15: 17 8
Route #16: 100 61 23
Route #17: 80 94 56 21
Route #18: 14 49 6 37 87
Route #19: 1 70 54
Route #20: 79 11 85 30
Route #21: 74 13 4
Route #22: 27 97 19
Route #23: 66 84 90 68
Route #24: 25 65 78 42 28
Route #25: 34 64 96 48 26 47 38
Route #26: 69 16 55 76
Cost 27591.0000
Time 16.0007